50
997
946 204
819 448
420 654
800 863
406 928
941 294
70 801
560 608
795 769
583 70
595 8
695 183
463 696
742 616
171 561
352 801
858 481
182 396
887 997
606 458
470 737
955 844
552 656
764 331
493 465
363 132
588 70
220 636
982 810
261 171
793 398
796 800
872 240
347 617
768 744
785 109
741 448
187 553
339 160
408 59
320 451
442 902
518 730
127 634
23 731
375 47
513 358
1 526
593 659
686 668